Problem:    
Rows:       354
Columns:    129 (110 integer, 110 binary)
Non-zeros:  1125
Status:     INTEGER OPTIMAL
Objective:  value = 15.6646 (MINimum)

   No.   Row name        Activity     Lower bound   Upper bound
------ ------------    ------------- ------------- -------------
     1 r.5                         1             1             = 
     2 r.6                   15.6646             0               
     3 r.7                   15.6646      -998.647               
     4 r.8                   1015.66             0               
     5 r.9                  -984.335      -997.056               
     6 r.10                  1015.66             0               
     7 r.11                 -984.335      -998.086               
     8 r.12                  15.6646             0               
     9 r.13                  15.6646      -996.211               
    10 r.14                  15.6646             0               
    11 r.15                 -993.483      -998.541               
    12 r.16                  1015.66             0               
    13 r.17                 -987.328      -996.725               
    14 r.18                  1015.66             0               
    15 r.19                 -990.604      -998.134               
    16 r.20                  15.6646             0               
    17 r.21                  15.6646      -995.662               
    18 r.22                  1015.66             0               
    19 r.23                  -992.47      -998.115               
    20 r.24                  15.6646             0               
    21 r.25                  12.7203      -996.271               
    22 r.26                  1015.66             0               
    23 r.27                 -986.249      -995.646               
    24 r.28                  15.6646             0               
    25 r.29                  13.7506       -993.52               
    26 r.30                  1015.66             0               
    27 r.31                 -994.942      -995.697               
    28 r.32                  15.6646             0               
    29 r.33                   5.0582      -991.792               
    30 r.34                  15.6646             0               
    31 r.35                   9.3963      -993.584               
    32 r.36                  1015.66             0               
    33 r.37                 -990.604      -991.359               
    34 r.38                  1015.66             0               
    35 r.39                 -999.244      -999.244               
    36 r.40                  15.6646             0               
    37 r.41                   0.7557      -997.934               
    38 r.42                        1             1             = 
    39 r.43                        1             1             = 
    40 r.44                        1             1             = 
    41 r.45                        1             1             = 
    42 r.46                        1             1             = 
    43 r.47                        1             1             = 
    44 r.48                        1             1             = 
    45 r.49                        1             1             = 
    46 r.50                        1             1             = 
    47 r.51                     1001             2               
    48 r.52                    -1001         -1001               
    49 r.53                     2000      -998.086               
    50 r.54                     1001             2               
    51 r.55                    -1001         -1001               
    52 r.56                     2000      -996.211               
    53 r.57                     1000             2               
    54 r.58                    -1000         -1001               
    55 r.59                  990.852      -998.541               
    56 r.60                        2             2               
    57 r.61                       -2         -1001               
    58 r.62                  -2.9928      -996.725               
    59 r.63                     1001             2               
    60 r.64                    -1001         -1001               
    61 r.65                  1993.73      -998.134               
    62 r.66                     1001             2               
    63 r.67                    -1001         -1001               
    64 r.68                     2000      -995.662               
    65 r.69                   8.1341      -998.647               
    66 r.70                 -991.866      -997.056               
    67 r.71                   2.9443      -998.647               
    68 r.72                 -997.056      -997.056               
    69 r.73                     1001             2               
    70 r.74                    -1001         -1001               
    71 r.75                  1998.09      -995.646               
    72 r.76                     1001             2               
    73 r.77                    -1001         -1001               
    74 r.78                  1998.09       -993.52               
    75 r.79                     1001             2               
    76 r.80                    -1001         -1001               
    77 r.81                  1989.39      -995.697               
    78 r.82                     1001             2               
    79 r.83                    -1001         -1001               
    80 r.84                  1989.39      -991.792               
    81 r.85                     1000             2               
    82 r.86                    -1000         -1001               
    83 r.87                  1993.73      -993.584               
    84 r.88                        2             2               
    85 r.89                       -2         -1001               
    86 r.90                  -6.2683      -991.359               
    87 r.91                     1001             2               
    88 r.92                    -1001         -1001               
    89 r.93                     2000        1.3527               
    90 r.94                     1001             2               
    91 r.95                    -1001         -1001               
    92 r.96                     2000        2.9443               
    93 r.97                     1001             2               
    94 r.98                    -1001         -1001               
    95 r.99                  990.852      -998.541               
    96 r.100                    1001             2               
    97 r.101                   -1001         -1001               
    98 r.102                 1997.01      -996.725               
    99 r.103                       2             2               
   100 r.104                      -2         -1001               
   101 r.105                 -6.2683      -998.134               
   102 r.106                    1000             2               
   103 r.107                   -1000         -1001               
   104 r.108                    2000      -995.662               
   105 r.109                       2             2               
   106 r.110                      -2         -1001               
   107 r.111                 -8.1341      -998.115               
   108 r.112                    1000             2               
   109 r.113                   -1000         -1001               
   110 r.114                 1997.06      -996.271               
   111 r.115                -998.086      -998.086               
   112 r.116                   1.914      -996.211               
   113 r.117                -998.086      -998.086               
   114 r.118                   1.914      -996.211               
   115 r.119                       2             2               
   116 r.120                      -2         -1001               
   117 r.121                -10.6064      -995.697               
   118 r.122                    1000             2               
   119 r.123                   -1000         -1001               
   120 r.124                 1989.39      -991.792               
   121 r.125                    1000             2               
   122 r.126                   -1000         -1001               
   123 r.127                 3009.15        1.3527               
   124 r.128                       2             2               
   125 r.129                      -2         -1001               
   126 r.130                  2.9928        2.9443               
   127 r.131                    1001             2               
   128 r.132                   -1001         -1001               
   129 r.133                 3009.15         1.914               
   130 r.134                    1001             2               
   131 r.135                   -1001         -1001               
   132 r.136                 2002.99        3.7894               
   133 r.137                    1001             2               
   134 r.138                   -1001         -1001               
   135 r.139                 3002.88      -998.134               
   136 r.140                    1001             2               
   137 r.141                   -1001         -1001               
   138 r.142                 2002.99      -995.662               
   139 r.143                    1001             2               
   140 r.144                   -1001         -1001               
   141 r.145                 3001.01      -998.115               
   142 r.146                    1001             2               
   143 r.147                   -1001         -1001               
   144 r.148                 2000.05      -996.271               
   145 r.149                    1001             2               
   146 r.150                   -1001         -1001               
   147 r.151                 3007.23      -995.646               
   148 r.152                    1001             2               
   149 r.153                   -1001         -1001               
   150 r.154                 2001.08       -993.52               
   151 r.155                -998.541      -998.541               
   152 r.156                -992.386      -996.725               
   153 r.157                -998.541      -998.541               
   154 r.158                -992.386      -996.725               
   155 r.159                    1000             2               
   156 r.160                   -1000         -1001               
   157 r.161                 3002.88      -993.584               
   158 r.162                       2             2               
   159 r.163                      -2         -1001               
   160 r.164                 -3.2755      -991.359               
   161 r.165                    1001             2               
   162 r.166                   -1001         -1001               
   163 r.167                 2006.27        1.3527               
   164 r.168                    1001             2               
   165 r.169                   -1001         -1001               
   166 r.170                    2000        2.9443               
   167 r.171                       2             2               
   168 r.172                      -2         -1001               
   169 r.173                  6.2683         1.914               
   170 r.174                    1000             2               
   171 r.175                   -1000         -1001               
   172 r.176                    2000        3.7894               
   173 r.177                    1001             2               
   174 r.178                   -1001         -1001               
   175 r.179                 997.121        1.4586               
   176 r.180                    1001             2               
   177 r.181                   -1001         -1001               
   178 r.182                 1997.01        3.2755               
   179 r.183                       2             2               
   180 r.184                      -2         -1001               
   181 r.185                 -1.8658      -998.115               
   182 r.186                    1000             2               
   183 r.187                   -1000         -1001               
   184 r.188                 1997.06      -996.271               
   185 r.189                       2             2               
   186 r.190                      -2         -1001               
   187 r.191                -995.646      -995.646               
   188 r.192                    1000             2               
   189 r.193                   -1000         -1001               
   190 r.194                 1998.09       -993.52               
   191 r.195                       2             2               
   192 r.196                      -2         -1001               
   193 r.197                 -4.3381      -995.697               
   194 r.198                    1000             2               
   195 r.199                   -1000         -1001               
   196 r.200                 1989.39      -991.792               
   197 r.201                    1001             2               
   198 r.202                   -1001         -1001               
   199 r.203                    2000      -993.584               
   200 r.204                    1001             2               
   201 r.205                   -1001         -1001               
   202 r.206                 1993.73      -991.359               
   203 r.207                -991.359      -998.134               
   204 r.208                 14.9089      -995.662               
   205 r.209                -991.359      -998.134               
   206 r.210                 14.9089      -995.662               
   207 r.211                       2             2               
   208 r.212                      -2         -1001               
   209 r.213                  8.1341         1.914               
   210 r.214                    1000             2               
   211 r.215                   -1000         -1001               
   212 r.216                 2002.94        3.7894               
   213 r.217                    1001             2               
   214 r.218                   -1001         -1001               
   215 r.219                 998.986        1.4586               
   216 r.220                    1001             2               
   217 r.221                   -1001         -1001               
   218 r.222                 1999.95        3.2755               
   219 r.223                       2             2               
   220 r.224                      -2         -1001               
   221 r.225                  1.8658        1.8658               
   222 r.226                    1000             2               
   223 r.227                   -1000         -1001               
   224 r.228                 2002.94        4.3382               
   225 r.229                       2             2               
   226 r.230                      -2         -1001               
   227 r.231                 -993.78      -995.646               
   228 r.232                    1000             2               
   229 r.233                   -1000         -1001               
   230 r.234                 2001.03       -993.52               
   231 r.235                       2             2               
   232 r.236                      -2         -1001               
   233 r.237                 -2.4723      -995.697               
   234 r.238                    1000             2               
   235 r.239                   -1000         -1001               
   236 r.240                 1992.34      -991.792               
   237 r.241                    1001             2               
   238 r.242                   -1001         -1001               
   239 r.243                 2001.87      -993.584               
   240 r.244                    1001             2               
   241 r.245                   -1001         -1001               
   242 r.246                 1996.68      -991.359               
   243 r.247                -993.225      -998.115               
   244 r.248                 11.9646      -996.271               
   245 r.249                -993.225      -998.115               
   246 r.250                 11.9646      -996.271               
   247 r.251                    1001             2               
   248 r.252                   -1001         -1001               
   249 r.253                 2001.91        1.3527               
   250 r.254                    1001             2               
   251 r.255                   -1001         -1001               
   252 r.256                 2001.91        2.9443               
   253 r.257                    1001             2               
   254 r.258                   -1001         -1001               
   255 r.259                 992.766        1.4586               
   256 r.260                    1001             2               
   257 r.261                   -1001         -1001               
   258 r.262                 1998.92        3.2755               
   259 r.263                       2             2               
   260 r.264                      -2         -1001               
   261 r.265                 995.646        1.8658               
   262 r.266                    1000             2               
   263 r.267                   -1000         -1001               
   264 r.268                 2001.91        4.3382               
   265 r.269                       2             2               
   266 r.270                      -2         -1001               
   267 r.271                  993.78        1.8846               
   268 r.272                    1000             2               
   269 r.273                   -1000         -1001               
   270 r.274                 1998.97         3.729               
   271 r.275                       2             2               
   272 r.276                      -2         -1001               
   273 r.277                 -8.6924      -995.697               
   274 r.278                    1000             2               
   275 r.279                   -1000         -1001               
   276 r.280                 1991.31      -991.792               
   277 r.281                -995.646      -995.646               
   278 r.282                  4.3543       -993.52               
   279 r.283                -995.646      -995.646               
   280 r.284                  4.3543       -993.52               
   281 r.285                    1001             2               
   282 r.286                   -1001         -1001               
   283 r.287                 2010.61        1.3527               
   284 r.288                    1001             2               
   285 r.289                   -1001         -1001               
   286 r.290                 2010.61        2.9443               
   287 r.291                       2             2               
   288 r.292                      -2         -1001               
   289 r.293                 10.6064         1.914               
   290 r.294                    1000             2               
   291 r.295                   -1000         -1001               
   292 r.296                 2010.61        3.7894               
   293 r.297                       2             2               
   294 r.298                      -2         -1001               
   295 r.299                  4.3381        1.8658               
   296 r.300                    1000             2               
   297 r.301                   -1000         -1001               
   298 r.302                 2010.61        4.3382               
   299 r.303                       2             2               
   300 r.304                      -2         -1001               
   301 r.305                  2.4723        1.8846               
   302 r.306                    1000             2               
   303 r.307                   -1000         -1001               
   304 r.308                 2007.66         3.729               
   305 r.309                       2             2               
   306 r.310                      -2         -1001               
   307 r.311                  8.6924        4.3543               
   308 r.312                    1000             2               
   309 r.313                   -1000         -1001               
   310 r.314                 2008.69          6.48               
   311 r.315                    1001             2               
   312 r.316                   -1001         -1001               
   313 r.317                 2004.34      -993.584               
   314 r.318                    1001             2               
   315 r.319                   -1001         -1001               
   316 r.320                 2004.34      -991.359               
   317 r.321                -995.697      -995.697               
   318 r.322                  4.3025      -991.792               
   319 r.323                -995.697      -995.697               
   320 r.324                  4.3025      -991.792               
   321 r.325                    1000             2               
   322 r.326                   -1000         -1001               
   323 r.327                 2006.27        1.3527               
   324 r.328                       2             2               
   325 r.329                      -2         -1001               
   326 r.330                  6.2683        2.9443               
   327 r.331                    1000             2               
   328 r.332                   -1000         -1001               
   329 r.333                  997.12        1.4586               
   330 r.334                       2             2               
   331 r.335                      -2         -1001               
   332 r.336                  3.2755        3.2755               
   333 r.337                    1001             2               
   334 r.338                   -1001         -1001               
   335 r.339                    2000        1.8658               
   336 r.340                    1001             2               
   337 r.341                   -1001         -1001               
   338 r.342                 2006.27        4.3382               
   339 r.343                    1001             2               
   340 r.344                   -1001         -1001               
   341 r.345                 1998.13        1.8846               
   342 r.346                    1001             2               
   343 r.347                   -1001         -1001               
   344 r.348                 2003.32         3.729               
   345 r.349                    1001             2               
   346 r.350                   -1001         -1001               
   347 r.351                 1995.66        4.3025               
   348 r.352                    1001             2               
   349 r.353                   -1001         -1001               
   350 r.354                 1995.66         8.208               
   351 r.355                  8.6406      -993.584               
   352 r.356                -991.359      -991.359               
   353 r.357                  8.6406      -993.584               
   354 r.358                -991.359      -991.359               

   No. Column name       Activity     Lower bound   Upper bound
------ ------------    ------------- ------------- -------------
     1 tt                    15.6646             0               
     2 s_1_9        *              1             0             1 
     3 s_1_1        *              0             0             1 
     4 t_1_1                       0             0               
     5 s_2_1        *              1             0             1 
     6 t_2_1                       0             0               
     7 s_1_2        *              1             0             1 
     8 t_1_2                       0             0               
     9 s_2_2        *              0             0             1 
    10 t_2_2                       0             0               
    11 s_1_3        *              0             0             1 
    12 t_1_3                 1009.15             0               
    13 s_2_3        *              1             0             1 
    14 t_2_3                  2.9928             0               
    15 s_1_4        *              1             0             1 
    16 t_1_4                  6.2683             0               
    17 s_2_4        *              0             0             1 
    18 t_2_4                       0             0               
    19 s_1_5        *              1             0             1 
    20 t_1_5                  8.1341             0               
    21 s_2_5        *              0             0             1 
    22 t_2_5                  2.9443             0               
    23 s_1_6        *              1             0             1 
    24 t_1_6                   1.914             0               
    25 s_2_6        *              0             0             1 
    26 t_2_6                   1.914             0               
    27 s_1_7        *              1             0             1 
    28 t_1_7                 10.6064             0               
    29 s_2_7        *              0             0             1 
    30 t_2_7                 10.6064             0               
    31 s_1_8        *              0             0             1 
    32 t_1_8                  6.2683             0               
    33 s_2_8        *              1             0             1 
    34 t_2_8                  6.2683             0               
    35 t_1_9                 14.9089             0               
    36 s_2_9        *              0             0             1 
    37 t_2_9                 14.9089             0               
    38 r_1_1_2      *              1             0             1 
    39 u_1_1_2      *              0             0             1 
    40 r_2_1_2      *              1             0             1 
    41 u_2_1_2      *              0             0             1 
    42 r_1_1_3      *              1             0             1 
    43 u_1_1_3      *              0             0             1 
    44 r_2_1_3      *              0             0             1 
    45 u_2_1_3      *              0             0             1 
    46 r_1_1_4      *              1             0             1 
    47 u_1_1_4      *              0             0             1 
    48 r_2_1_4      *              1             0             1 
    49 u_2_1_4      *              0             0             1 
    50 r_1_1_6      *              1             0             1 
    51 u_1_1_6      *              0             0             1 
    52 r_2_1_6      *              1             0             1 
    53 u_2_1_6      *              0             0             1 
    54 r_1_1_7      *              1             0             1 
    55 u_1_1_7      *              0             0             1 
    56 r_2_1_7      *              1             0             1 
    57 u_2_1_7      *              0             0             1 
    58 r_1_1_8      *              1             0             1 
    59 u_1_1_8      *              0             0             1 
    60 r_2_1_8      *              0             0             1 
    61 u_2_1_8      *              0             0             1 
    62 r_1_2_3      *              1             0             1 
    63 u_1_2_3      *              0             0             1 
    64 r_2_2_3      *              1             0             1 
    65 u_2_2_3      *              0             0             1 
    66 r_1_2_4      *              0             0             1 
    67 u_1_2_4      *              0             0             1 
    68 r_2_2_4      *              1             0             1 
    69 u_2_2_4      *              0             0             1 
    70 r_1_2_5      *              0             0             1 
    71 u_1_2_5      *              0             0             1 
    72 r_2_2_5      *              1             0             1 
    73 u_2_2_5      *              0             0             1 
    74 r_1_2_7      *              0             0             1 
    75 u_1_2_7      *              0             0             1 
    76 r_2_2_7      *              1             0             1 
    77 u_2_2_7      *              0             0             1 
    78 r_1_3_4      *              1             0             1 
    79 u_1_3_4      *              0             0             1 
    80 r_2_3_4      *              1             0             1 
    81 u_2_3_4      *              0             0             1 
    82 r_1_3_5      *              1             0             1 
    83 u_1_3_5      *              0             0             1 
    84 r_2_3_5      *              1             0             1 
    85 u_2_3_5      *              0             0             1 
    86 r_1_3_6      *              1             0             1 
    87 u_1_3_6      *              0             0             1 
    88 r_2_3_6      *              1             0             1 
    89 u_2_3_6      *              0             0             1 
    90 r_1_3_8      *              1             0             1 
    91 u_1_3_8      *              0             0             1 
    92 r_2_3_8      *              0             0             1 
    93 u_2_3_8      *              0             0             1 
    94 r_1_4_5      *              0             0             1 
    95 u_1_4_5      *              0             0             1 
    96 r_2_4_5      *              1             0             1 
    97 u_2_4_5      *              0             0             1 
    98 r_1_4_6      *              0             0             1 
    99 u_1_4_6      *              1             0             1 
   100 r_2_4_6      *              1             0             1 
   101 u_2_4_6      *              0             0             1 
   102 r_1_4_7      *              0             0             1 
   103 u_1_4_7      *              0             0             1 
   104 r_2_4_7      *              1             0             1 
   105 u_2_4_7      *              0             0             1 
   106 r_1_4_8      *              1             0             1 
   107 u_1_4_8      *              0             0             1 
   108 r_2_4_8      *              1             0             1 
   109 u_2_4_8      *              0             0             1 
   110 r_1_5_6      *              0             0             1 
   111 u_1_5_6      *              1             0             1 
   112 r_2_5_6      *              1             0             1 
   113 u_2_5_6      *              0             0             1 
   114 r_1_5_7      *              0             0             1 
   115 u_1_5_7      *              0             0             1 
   116 r_2_5_7      *              1             0             1 
   117 u_2_5_7      *              0             0             1 
   118 r_1_5_8      *              1             0             1 
   119 u_1_5_8      *              0             0             1 
   120 r_2_5_8      *              1             0             1 
   121 u_2_5_8      *              0             0             1 
   122 r_1_6_7      *              0             0             1 
   123 u_1_6_7      *              0             0             1 
   124 r_2_6_7      *              1             0             1 
   125 u_2_6_7      *              0             0             1 
   126 r_1_7_8      *              1             0             1 
   127 u_1_7_8      *              0             0             1 
   128 r_2_7_8      *              1             0             1 
   129 u_2_7_8      *              0             0             1 

Integer feasibility conditions:

KKT.PE: max.abs.err = 2.27e-13 on row 230
        max.rel.err = 5.68e-17 on row 255
        High quality

KKT.PB: max.abs.err = 5.68e-13 on row 277
        max.rel.err = 5.70e-16 on row 277
        High quality

End of output
